c CNF formula generated by generate_input.py
c Number of variables: 50
c Number of clauses: 50
c Clause length: random between 1 and 4
p cnf 50 50
-37 27 -17 -48 0
-24 -38 34 -7 0
29 0
-1 15 -24 27 0
40 -21 20 0
-48 14 -16 0
13 0
-21 0
22 -27 29 0
15 35 -45 -13 0
32 18 0
6 41 15 44 0
2 0
-38 0
35 -19 -10 0
35 5 -17 0
14 -23 0
-50 -23 0
-43 0
45 0
43 -45 -6 48 0
-44 -19 40 41 0
22 -26 3 -4 0
-32 44 10 3 0
9 -5 -36 -13 0
-28 22 0
-34 17 16 -32 0
-26 0
-46 0
-28 0
33 10 21 0
9 -38 0
-19 -43 -23 -37 0
-7 15 0
-49 0
-44 0
18 -8 32 -33 0
7 -22 -10 33 0
17 47 -49 0
11 -47 -27 16 0
44 -42 0
-45 -16 -19 0
2 44 0
17 -35 0
37 12 13 11 0
6 23 -29 44 0
23 0
-36 24 38 -49 0
31 -46 34 -10 0
-37 0
